[VALIDATOR STDOUT]
Checking plan: /home/jfan5/Safety-gen/runs/benchmark/optic/grippers_20260201_172244/grippers/optic_results/grippers-n1-r8-o6-s6001.plan
Plan executed successfully - checking goal
Plan valid
Final value: 25 

Successful plans:
Value: 25
 /home/jfan5/Safety-gen/runs/benchmark/optic/grippers_20260201_172244/grippers/optic_results/grippers-n1-r8-o6-s6001.plan 25
